

******************************************************************************
This program contains Ipopt, a library for large-scale nonlinear optimization.
 Ipopt is released as open source code under the Eclipse Public License (EPL).
         For more information visit https://github.com/coin-or/Ipopt
******************************************************************************

This is Ipopt version 3.14.11, running with linear solver MUMPS 5.5.1.

Number of nonzeros in equality constraint Jacobian...:        0
Number of nonzeros in inequality constraint Jacobian.:        2
Number of nonzeros in Lagrangian Hessian.............:       10

Total number of variables............................:        4
                     variables with only lower bounds:        0
                variables with lower and upper bounds:        4
                     variables with only upper bounds:        0
Total number of equality constraints.................:        0
Total number of inequality constraints...............:        1
        inequality constraints with only lower bounds:        1
   inequality constraints with lower and upper bounds:        0
        inequality constraints with only upper bounds:        0

iter    objective    inf_pr   inf_du lg(mu)  ||d||  lg(rg) alpha_du alpha_pr  ls
   0  9.8785875e-01 0.00e+00 1.35e+00  -1.0 0.00e+00    -  0.00e+00 0.00e+00   0
   1  6.7316179e-01 0.00e+00 2.46e-01  -1.0 5.90e-01    -  7.95e-01 1.00e+00f  1
   2  5.4466166e-01 0.00e+00 1.95e+00  -1.0 5.25e+00  -2.0 2.84e-01 1.09e-01f  2
   3  2.4490332e-01 0.00e+00 1.34e-01  -1.0 4.07e+00  -1.6 1.00e+00 1.00e+00f  1
   4  2.0142094e-01 0.00e+00 2.13e-02  -1.7 6.37e-01  -2.1 1.00e+00 1.00e+00h  1
   5  1.8925970e-01 0.00e+00 9.13e-03  -2.5 3.89e-01  -1.6 1.00e+00 1.00e+00h  1
   6  1.2844302e-01 0.00e+00 1.18e+00  -3.8 7.34e+00  -2.1 4.44e-01 3.83e-01f  2
   7  1.0781051e-01 0.00e+00 2.09e+00  -3.8 5.27e+00    -  5.38e-01 1.00e+00h  1
   8  3.6330238e-01 0.00e+00 1.26e+00  -3.8 3.85e+00  -2.6 8.81e-01 1.00e+00H  1
   9  1.1737131e-01 0.00e+00 1.94e+00  -3.8 1.05e+00  -1.3 9.67e-01 1.00e+00F  1
iter    objective    inf_pr   inf_du lg(mu)  ||d||  lg(rg) alpha_du alpha_pr  ls
  10  4.6944821e-02 0.00e+00 3.18e-01  -3.8 3.92e-01  -0.8 1.00e+00 5.00e-01f  2
  11  3.4254965e-02 0.00e+00 1.00e-02  -3.8 1.92e-01  -1.3 1.00e+00 1.00e+00h  1
  12  2.6110778e-02 0.00e+00 8.17e-03  -3.8 4.97e-01  -1.8 1.00e+00 1.00e+00h  1
  13  1.5537081e-02 0.00e+00 9.38e-03  -3.8 8.54e-01  -2.3 1.00e+00 1.00e+00f  1
  14  1.0338910e-02 0.00e+00 6.56e-03  -3.8 1.15e+00  -2.7 1.00e+00 1.00e+00h  1
  15  9.8199786e-03 0.00e+00 5.90e-02  -3.8 1.09e+00    -  1.00e+00 1.00e+00h  1
  16  9.4022461e-03 0.00e+00 1.75e-03  -3.8 1.15e-01    -  1.00e+00 1.00e+00h  1
  17  9.4023806e-03 0.00e+00 1.28e-06  -3.8 5.79e-03    -  1.00e+00 1.00e+00h  1
  18  9.4019736e-03 0.00e+00 5.58e-05  -5.7 2.03e-02    -  1.00e+00 1.00e+00h  1
  19  9.4019733e-03 0.00e+00 8.90e-09  -5.7 8.66e-05    -  1.00e+00 1.00e+00h  1
iter    objective    inf_pr   inf_du lg(mu)  ||d||  lg(rg) alpha_du alpha_pr  ls
  20  9.4019733e-03 0.00e+00 8.97e-09  -8.6 2.54e-04    -  1.00e+00 1.00e+00h  1

Number of Iterations....: 20

                                   (scaled)                 (unscaled)
Objective...............:   9.4019732544657827e-03    9.4019732544657827e-03
Dual infeasibility......:   8.9690672279998312e-09    8.9690672279998312e-09
Constraint violation....:   0.0000000000000000e+00    0.0000000000000000e+00
Variable bound violation:   0.0000000000000000e+00    0.0000000000000000e+00
Complementarity.........:   2.6039282114690159e-09    2.6039282114690159e-09
Overall NLP error.......:   8.9690672279998312e-09    8.9690672279998312e-09


Number of objective function evaluations             = 36
Number of objective gradient evaluations             = 21
Number of equality constraint evaluations            = 0
Number of inequality constraint evaluations          = 36
Number of equality constraint Jacobian evaluations   = 0
Number of inequality constraint Jacobian evaluations = 21
Number of Lagrangian Hessian evaluations             = 20
Total seconds in IPOPT                               = 0.018

EXIT: Optimal Solution Found.
 
Ipopt 3.14.11: Optimal Solution Found
